%nproc=28  
%mem=56GB
#p freq b3lyp/6-311+g** em=gd3bj

 Title: C-b3lyp-d3-6-311+g**

0 1
C   0.0000000000   0.0000000000   0.0000000000



