%nproc=28  
%mem=56GB
#p freq b3lyp/6-311+g** em=gd3bj

 Title: N-b3lyp-d3-6-311+g**

0 2
N   0.0000000000   0.0000000000   0.0000000000



